 
 347          
 C:\PROGRAMMI\LANCIO\WORK\AP05501\000          ,    863. , 273 , 273 ,  0 ,  0 ,  0 ,  0 ,   0 ,   1 ,   664 ,  4 ,  5 ,  1 ,  19.05 ,   25.4 ,   400. ,   480. ,  2 ,  0 ,    0. ,  0 ,   0. ,   2.11 ,  0 ,  6096 ,  1 ,  0 ,  0 ,     0. ,     0. ,  0 ,  0 ,      0. ,  0 ,  0 ,  0 ,     0. ,     0. ,  0 ,  1 ,     0. ,       0. ,       0. ,  0 ,                                                                  
                                                                  
                                                                  
 0 
 808 
 0 
 0 
 0 
 0 
